NAME: cuum690.tsp
TYPE: TSP
COMMENT: User-generated TSP file
DIMENSION: 690
EDGE_WEIGHT_TYPE: EUC_2D
NODE_COORD_SECTION
1 575.0 382.0
2 414.0 560.0
3 326.0 154.0
4 354.0 421.0
5 383.0 2.0
6 479.0 246.0
7 396.0 81.0
8 180.0 440.0
9 289.0 24.0
10 202.0 546.0
11 275.0 256.0
12 497.0 347.0
13 370.0 48.0
14 538.0 535.0
15 35.0 183.0
16 631.0 93.0
17 193.0 231.0
18 130.0 601.0
19 312.0 158.0
20 345.0 444.0
21 652.0 654.0
22 105.0 444.0
23 511.0 220.0
24 662.0 611.0
25 501.0 408.0
26 263.0 611.0
27 129.0 358.0
28 120.0 99.0
29 17.0 323.0
30 642.0 462.0
31 387.0 556.0
32 685.0 232.0
33 431.0 13.0
34 578.0 437.0
35 180.0 586.0
36 431.0 559.0
37 159.0 676.0
38 548.0 129.0
39 356.0 125.0
40 370.0 574.0
41 43.0 403.0
42 293.0 465.0
43 290.0 561.0
44 658.0 687.0
45 286.0 434.0
46 404.0 73.0
47 61.0 274.0
48 138.0 670.0
49 562.0 288.0
50 494.0 632.0
51 589.0 606.0
52 254.0 581.0
53 507.0 541.0
54 178.0 246.0
55 582.0 316.0
56 192.0 21.0
57 139.0 204.0
58 474.0 586.0
59 511.0 69.0
60 496.0 379.0
61 125.0 459.0
62 104.0 250.0
63 163.0 122.0
64 202.0 196.0
65 453.0 514.0
66 278.0 279.0
67 264.0 499.0
68 191.0 258.0
69 133.0 107.0
70 638.0 609.0
71 438.0 644.0
72 174.0 399.0
73 438.0 523.0
74 435.0 595.0
75 248.0 680.0
76 270.0 263.0
77 269.0 350.0
78 187.0 413.0
79 161.0 122.0
80 55.0 83.0
81 436.0 620.0
82 668.0 14.0
83 390.0 323.0
84 132.0 590.0
85 22.0 352.0
86 199.0 682.0
87 571.0 653.0
88 182.0 192.0
89 83.0 507.0
90 534.0 259.0
91 328.0 345.0
92 555.0 529.0
93 363.0 670.0
94 574.0 181.0
95 401.0 564.0
96 290.0 676.0
97 359.0 382.0
98 489.0 300.0
99 639.0 625.0
100 132.0 13.0
101 178.0 257.0
102 193.0 525.0
103 118.0 479.0
104 328.0 633.0
105 35.0 446.0
106 661.0 402.0
107 168.0 427.0
108 546.0 431.0
109 359.0 541.0
110 237.0 168.0
111 54.0 340.0
112 202.0 110.0
113 304.0 370.0
114 544.0 611.0
115 264.0 341.0
116 360.0 637.0
117 265.0 475.0
118 103.0 583.0
119 478.0 460.0
120 392.0 270.0
121 497.0 56.0
122 376.0 546.0
123 193.0 384.0
124 561.0 480.0
125 682.0 166.0
126 430.0 161.0
127 310.0 158.0
128 512.0 36.0
129 6.0 197.0
130 317.0 286.0
131 478.0 422.0
132 78.0 418.0
133 44.0 632.0
134 71.0 155.0
135 28.0 684.0
136 488.0 158.0
137 19.0 56.0
138 389.0 137.0
139 350.0 201.0
140 143.0 267.0
141 646.0 540.0
142 512.0 209.0
143 71.0 213.0
144 165.0 64.0
145 78.0 99.0
146 532.0 25.0
147 310.0 361.0
148 401.0 63.0
149 401.0 125.0
150 534.0 65.0
151 335.0 65.0
152 121.0 275.0
153 167.0 676.0
154 154.0 287.0
155 348.0 259.0
156 279.0 499.0
157 359.0 497.0
158 664.0 188.0
159 170.0 186.0
160 553.0 619.0
161 274.0 577.0
162 18.0 502.0
163 54.0 683.0
164 389.0 364.0
165 456.0 182.0
166 488.0 667.0
167 177.0 633.0
168 250.0 114.0
169 145.0 404.0
170 183.0 88.0
171 423.0 610.0
172 183.0 209.0
173 128.0 137.0
174 290.0 671.0
175 350.0 123.0
176 605.0 634.0
177 476.0 183.0
178 177.0 269.0
179 58.0 359.0
180 465.0 366.0
181 583.0 544.0
182 612.0 271.0
183 594.0 144.0
184 278.0 96.0
185 19.0 56.0
186 240.0 580.0
187 686.0 499.0
188 54.0 147.0
189 267.0 62.0
190 262.0 410.0
191 681.0 137.0
192 90.0 205.0
193 460.0 326.0
194 620.0 670.0
195 465.0 440.0
196 271.0 576.0
197 17.0 642.0
198 632.0 1.0
199 273.0 500.0
200 192.0 422.0
201 645.0 201.0
202 407.0 56.0
203 460.0 276.0
204 20.0 211.0
205 462.0 642.0
206 559.0 455.0
207 531.0 150.0
208 221.0 195.0
209 352.0 129.0
210 232.0 533.0
211 352.0 421.0
212 313.0 401.0
213 419.0 313.0
214 260.0 174.0
215 591.0 555.0
216 683.0 226.0
217 426.0 687.0
218 269.0 415.0
219 212.0 49.0
220 353.0 242.0
221 512.0 389.0
222 172.0 645.0
223 361.0 513.0
224 488.0 199.0
225 369.0 187.0
226 342.0 637.0
227 661.0 653.0
228 96.0 421.0
229 354.0 545.0
230 445.0 687.0
231 313.0 216.0
232 531.0 608.0
233 525.0 31.0
234 223.0 628.0
235 513.0 390.0
236 649.0 279.0
237 430.0 571.0
238 468.0 673.0
239 1.0 585.0
240 476.0 253.0
241 247.0 304.0
242 623.0 230.0
243 637.0 39.0
244 372.0 94.0
245 183.0 503.0
246 287.0 563.0
247 16.0 32.0
248 427.0 230.0
249 77.0 183.0
250 610.0 367.0
251 610.0 385.0
252 141.0 207.0
253 169.0 681.0
254 424.0 593.0
255 9.0 254.0
256 314.0 688.0
257 340.0 22.0
258 14.0 227.0
259 419.0 664.0
260 28.0 572.0
261 48.0 643.0
262 489.0 683.0
263 380.0 371.0
264 343.0 592.0
265 210.0 390.0
266 497.0 327.0
267 37.0 121.0
268 319.0 239.0
269 609.0 459.0
270 662.0 330.0
271 302.0 31.0
272 314.0 457.0
273 623.0 357.0
274 117.0 424.0
275 439.0 28.0
276 89.0 283.0
277 31.0 306.0
278 431.0 128.0
279 52.0 496.0
280 638.0 88.0
281 508.0 359.0
282 160.0 118.0
283 328.0 480.0
284 509.0 143.0
285 278.0 685.0
286 482.0 180.0
287 555.0 427.0
288 262.0 224.0
289 553.0 515.0
290 76.0 338.0
291 103.0 126.0
292 209.0 11.0
293 663.0 419.0
294 111.0 430.0
295 555.0 162.0
296 22.0 98.0
297 443.0 450.0
298 116.0 186.0
299 520.0 376.0
300 152.0 622.0
301 337.0 253.0
302 301.0 276.0
303 516.0 115.0
304 547.0 395.0
305 653.0 433.0
306 125.0 36.0
307 666.0 366.0
308 478.0 565.0
309 40.0 338.0
310 371.0 127.0
311 471.0 321.0
312 37.0 261.0
313 218.0 397.0
314 22.0 467.0
315 253.0 415.0
316 383.0 426.0
317 63.0 554.0
318 633.0 111.0
319 603.0 360.0
320 456.0 432.0
321 519.0 207.0
322 581.0 388.0
323 597.0 672.0
324 244.0 468.0
325 475.0 139.0
326 253.0 243.0
327 20.0 344.0
328 528.0 412.0
329 627.0 683.0
330 652.0 344.0
331 136.0 193.0
332 458.0 575.0
333 623.0 671.0
334 639.0 187.0
335 342.0 594.0
336 419.0 576.0
337 415.0 251.0
338 545.0 61.0
339 665.0 486.0
340 450.0 286.0
341 436.0 340.0
342 62.0 466.0
343 645.0 595.0
344 301.0 288.0
345 114.0 454.0
346 418.0 474.0
347 205.0 100.0
348 588.0 659.0
349 370.0 91.0
350 118.0 195.0
351 366.0 68.0
352 403.0 493.0
353 647.0 281.0
354 646.0 116.0
355 539.0 663.0
356 463.0 490.0
357 477.0 414.0
358 296.0 556.0
359 9.0 619.0
360 247.0 682.0
361 619.0 314.0
362 625.0 683.0
363 269.0 620.0
364 163.0 417.0
365 199.0 110.0
366 351.0 13.0
367 603.0 338.0
368 540.0 331.0
369 401.0 184.0
370 336.0 24.0
371 594.0 424.0
372 199.0 667.0
373 39.0 659.0
374 573.0 193.0
375 117.0 499.0
376 452.0 51.0
377 37.0 27.0
378 674.0 668.0
379 7.0 545.0
380 442.0 656.0
381 233.0 606.0
382 606.0 568.0
383 483.0 10.0
384 685.0 650.0
385 342.0 229.0
386 555.0 429.0
387 4.0 160.0
388 53.0 288.0
389 633.0 678.0
390 234.0 79.0
391 219.0 628.0
392 291.0 608.0
393 368.0 257.0
394 680.0 350.0
395 418.0 73.0
396 662.0 626.0
397 293.0 212.0
398 549.0 192.0
399 514.0 411.0
400 319.0 326.0
401 467.0 414.0
402 335.0 563.0
403 280.0 594.0
404 256.0 306.0
405 307.0 93.0
406 291.0 652.0
407 604.0 160.0
408 489.0 261.0
409 210.0 359.0
410 23.0 278.0
411 77.0 299.0
412 293.0 294.0
413 289.0 303.0
414 623.0 49.0
415 309.0 452.0
416 373.0 661.0
417 321.0 628.0
418 471.0 383.0
419 369.0 556.0
420 131.0 38.0
421 312.0 373.0
422 309.0 521.0
423 596.0 652.0
424 148.0 528.0
425 218.0 50.0
426 362.0 430.0
427 674.0 631.0
428 527.0 594.0
429 479.0 198.0
430 534.0 368.0
431 396.0 659.0
432 22.0 564.0
433 184.0 265.0
434 502.0 482.0
435 304.0 306.0
436 294.0 44.0
437 453.0 262.0
438 349.0 289.0
439 35.0 445.0
440 642.0 197.0
441 5.0 217.0
442 145.0 575.0
443 46.0 582.0
444 262.0 603.0
445 58.0 68.0
446 529.0 394.0
447 658.0 127.0
448 94.0 28.0
449 30.0 675.0
450 553.0 1.0
451 230.0 566.0
452 446.0 362.0
453 165.0 589.0
454 89.0 609.0
455 504.0 184.0
456 402.0 616.0
457 177.0 674.0
458 60.0 581.0
459 237.0 56.0
460 1.0 270.0
461 643.0 217.0
462 373.0 538.0
463 137.0 473.0
464 257.0 118.0
465 500.0 394.0
466 270.0 1.0
467 530.0 675.0
468 272.0 283.0
469 575.0 310.0
470 437.0 421.0
471 302.0 405.0
472 299.0 625.0
473 622.0 17.0
474 568.0 146.0
475 322.0 628.0
476 432.0 536.0
477 609.0 89.0
478 368.0 523.0
479 47.0 204.0
480 224.0 666.0
481 158.0 191.0
482 12.0 337.0
483 576.0 423.0
484 142.0 280.0
485 482.0 641.0
486 270.0 222.0
487 106.0 204.0
488 380.0 550.0
489 335.0 615.0
490 238.0 31.0
491 438.0 276.0
492 276.0 401.0
493 396.0 488.0
494 558.0 51.0
495 238.0 253.0
496 72.0 554.0
497 368.0 390.0
498 129.0 639.0
499 182.0 629.0
500 188.0 582.0
501 562.0 81.0
502 240.0 152.0
503 172.0 613.0
504 331.0 94.0
505 58.0 654.0
506 382.0 597.0
507 688.0 651.0
508 110.0 599.0
509 418.0 607.0
510 658.0 151.0
511 502.0 368.0
512 50.0 488.0
513 238.0 690.0
514 399.0 297.0
515 647.0 568.0
516 671.0 265.0
517 348.0 336.0
518 625.0 584.0
519 380.0 682.0
520 274.0 513.0
521 592.0 506.0
522 271.0 642.0
523 629.0 492.0
524 546.0 73.0
525 18.0 14.0
526 608.0 279.0
527 201.0 298.0
528 512.0 420.0
529 681.0 371.0
530 689.0 485.0
531 347.0 492.0
532 463.0 216.0
533 385.0 491.0
534 513.0 129.0
535 600.0 206.0
536 415.0 29.0
537 99.0 9.0
538 331.0 161.0
539 647.0 141.0
540 33.0 57.0
541 349.0 641.0
542 421.0 455.0
543 654.0 667.0
544 560.0 587.0
545 263.0 268.0
546 163.0 437.0
547 293.0 131.0
548 231.0 634.0
549 396.0 596.0
550 260.0 327.0
551 571.0 43.0
552 357.0 101.0
553 552.0 528.0
554 624.0 260.0
555 127.0 649.0
556 178.0 96.0
557 481.0 432.0
558 545.0 539.0
559 235.0 216.0
560 499.0 152.0
561 652.0 129.0
562 349.0 397.0
563 89.0 472.0
564 378.0 119.0
565 288.0 106.0
566 580.0 680.0
567 446.0 350.0
568 459.0 468.0
569 1.0 60.0
570 39.0 615.0
571 497.0 250.0
572 445.0 557.0
573 408.0 220.0
574 499.0 244.0
575 588.0 205.0
576 119.0 134.0
577 456.0 32.0
578 415.0 147.0
579 333.0 615.0
580 26.0 605.0
581 420.0 101.0
582 573.0 474.0
583 653.0 126.0
584 597.0 623.0
585 353.0 109.0
586 403.0 190.0
587 66.0 162.0
588 314.0 577.0
589 589.0 442.0
590 520.0 54.0
591 79.0 187.0
592 530.0 647.0
593 90.0 306.0
594 154.0 341.0
595 167.0 322.0
596 388.0 261.0
597 133.0 540.0
598 587.0 93.0
599 351.0 255.0
600 51.0 183.0
601 483.0 416.0
602 660.0 119.0
603 607.0 322.0
604 311.0 565.0
605 58.0 439.0
606 454.0 97.0
607 490.0 637.0
608 230.0 90.0
609 690.0 202.0
610 413.0 360.0
611 481.0 91.0
612 592.0 449.0
613 616.0 471.0
614 208.0 444.0
615 408.0 242.0
616 138.0 520.0
617 353.0 243.0
618 399.0 10.0
619 333.0 433.0
620 300.0 31.0
621 632.0 229.0
622 678.0 563.0
623 341.0 641.0
624 248.0 358.0
625 344.0 478.0
626 62.0 412.0
627 578.0 251.0
628 13.0 474.0
629 276.0 526.0
630 352.0 386.0
631 76.0 521.0
632 403.0 41.0
633 521.0 567.0
634 457.0 601.0
635 377.0 572.0
636 102.0 207.0
637 662.0 419.0
638 25.0 582.0
639 483.0 49.0
640 544.0 133.0
641 260.0 463.0
642 303.0 503.0
643 109.0 79.0
644 548.0 328.0
645 406.0 506.0
646 230.0 556.0
647 624.0 1.0
648 627.0 178.0
649 343.0 346.0
650 449.0 318.0
651 531.0 303.0
652 575.0 582.0
653 11.0 9.0
654 425.0 323.0
655 580.0 267.0
656 359.0 190.0
657 98.0 498.0
658 302.0 297.0
659 516.0 139.0
660 77.0 402.0
661 89.0 544.0
662 177.0 240.0
663 528.0 243.0
664 485.0 519.0
665 140.0 423.0
666 148.0 119.0
667 396.0 340.0
668 601.0 637.0
669 444.0 138.0
670 409.0 612.0
671 513.0 151.0
672 151.0 112.0
673 9.0 479.0
674 206.0 364.0
675 496.0 356.0
676 174.0 158.0
677 629.0 490.0
678 519.0 601.0
679 585.0 337.0
680 463.0 501.0
681 454.0 413.0
682 431.0 615.0
683 206.0 25.0
684 392.0 236.0
685 162.0 79.0
686 462.0 455.0
687 164.0 54.0
688 227.0 427.0
689 573.0 217.0
690 373.0 642.0
EOF





